(set-info :Origin "This instance was generated by: BanditFuzz-- an RL fuzzer for SMT solvers" )
(set-info :Author "Joe Scott, Fed Mora, Vijay Ganesh" )
(set-info :Contact "Joe Scott, joseph.scott@uwaterloo.ca")
; solvers/z3.sh
; 	time => 107.38877439498901
; 	answer => sat
; solvers/bitwuzla.sh
; 	time => 0.48166966438293457
; 	answer => sat
; solvers/cvc4.sh
; 	time => 0.10282254219055176
; 	answer => err
(set-logic QF_BV)
(declare-const bool_0 Bool)
(declare-const bool_1 Bool)
(declare-const bool_2 Bool)
(declare-const bool_3 Bool)
(declare-const bool_4 Bool)
(declare-const bv_0 (_ BitVec 32))
(declare-const bv_1 (_ BitVec 32))
(declare-const bv_2 (_ BitVec 32))
(declare-const bv_3 (_ BitVec 32))
(declare-const bv_4 (_ BitVec 32))
(assert (xor (or (bvslt bv_3 #x6338288d ) (bvuge bv_4 #xcf0afebc )) (bvule (bvshl #xe002f106  bv_0) (bvudiv #xf8824f3c  bv_1))))
(assert (bvugt (bvlshr (bvlshr #x61aa4c56  bv_0) (bvand bv_3 #xe2871532 )) (bvand (bvshl bv_2 bv_3) (bvmul bv_4 bv_4))))
(assert (bvsgt (bvnand (bvsrem #x4e7df36d  #x174d6615 ) (bvsrem bv_2 bv_2)) (bvxor (bvnand bv_2 bv_2) (bvashr bv_1 bv_3))))
(assert (bvugt (bvlshr (bvsub #xb723f35b  #x8eaa2fef ) (bvudiv #x21767bd2  bv_2)) (bvsmod (bvnor #x070ec283  #x04759577 ) (bvmul #xb5eb6047  bv_0))))
(assert (bvsgt (bvnor (bvxnor bv_4 #xb2dedb6c ) (bvsdiv #x3e22c367  bv_3)) (bvadd (bvshl bv_4 #x9e026527 ) (bvsrem bv_4 bv_2))))
(check-sat)
(exit)
